set T := 1 2 3 4 5;
set J := 1 2 3 4;
set L := 1 2;
param H:= 10000;
set K := 1 2;
set Jk[1] := 1 2;
set Jk[2] := 3 4;
set R := 1 2 3;
set P := 1 2 3 4 5 6 7;
param alpha :=
1 0.3
2 0.3
3 0.4;

param yd :=
1 1 1 1	1 1 2 1	1 1 3 1
1 2 1 1	1 2 2 1	1 2 3 1

2 1 1 1	2 1 2 1	2 1 3 1
2 2 1 1	2 2 2 1	2 2 3 1

3 1 1 1	3 1 2 1	3 1 3 1
3 2 1 1	3 2 2 1	3 2 3 1

4 1 1 1	4 1 2 1	4 1 3 1
4 2 1 1	4 2 2 1	4 2 3 1

5 1 1 1	5 1 2 1	5 1 3 1
5 2 1 1	5 2 2 1	5 2 3 1

6 1 1 1	6 1 2 1	6 1 3 1
6 2 1 1	6 2 2 1	6 2 3 1

7 1 1 1	7 1 2 1	7 1 3 1
7 2 1 1	7 2 2 1	7 2 3 1
;
param pf :=
1 2
2 2
3 3
4 2
5 4
6 3
7 4;

param pc :=
1 2
2 2
3 2
4 3
5 4
6 5
7 6;

param c :=
1 2
2 2
3 2
4 2;

param ce :=
1 2
2 2
3 2
4 2;

param b := 10;
param hf := 100;
param hc := 150;

param sf :=
1 2
2 2
3 2
4 3
5 4
6 5
7 6;

param sc :=
1 2
2 2
3 2
4 3
5 4
6 5
7 6;

param F := 10000;

param df : 1 2 3 4 5 :=
1 200 300 400 500 600
2 200 300 400 500 600
3 200 300 400 500 600
4 200 300 400 500 600
5 200 300 400 500 600
6 200 300 400 500 600
7 200 300 400 500 600 ;

param dc : 1 2 3 4 5 :=
1 2 30 4 50 60
2 20 30 400 50 60
3 0 30 40 50 60
4 20 30 40 50 60
5 20 3 4 5 6
6 20 30 40 50 60
7 0 30 40 50 6 ;

param tau := 2;

param Wf := 1;
param Wc := 1;

param t :=
1 12
2 33
3 44
4 55;

param Ta :=
1 5000
2 3000
3 3000
4 3000
5 5000;

param Te :=
1  2000
2 3000
3 4000
4 5555
5 1000;

param delta := 0.02;

set Td := -1 0 1  2 3 4  5 6 7;